c description: Random 3-CNF over 20 variables and 85 clauses
c generator: CNFgen (0.9.2)
c copyright: (C) 2012-2022 Massimo Lauria <massimo.lauria@uniroma1.it>
c url: https://massimolauria.net/cnfgen
c command line: cnfgen --output CNF_4.28/20_bit_85_347.cnf randkcnf 3 20 85
c
p cnf 20 85
6 12 18 0
4 16 -19 0
-2 -4 -18 0
4 -10 14 0
5 7 11 0
1 2 3 0
1 11 -12 0
14 17 -18 0
-5 8 20 0
-3 7 -17 0
-17 -18 -19 0
3 7 -17 0
-6 8 -12 0
-5 7 -14 0
4 -9 17 0
-13 -17 -19 0
-6 -13 17 0
-1 -3 -16 0
-2 13 17 0
1 -5 -17 0
-10 15 19 0
-9 15 -18 0
5 -16 -18 0
2 7 -12 0
3 4 13 0
-7 14 -20 0
-7 -17 20 0
-11 -13 -17 0
-7 -13 15 0
10 -13 16 0
10 -11 14 0
3 -10 13 0
2 4 -7 0
-5 9 -19 0
1 6 8 0
-3 -5 -7 0
13 -17 -19 0
-4 7 -9 0
-7 -18 -19 0
-4 5 17 0
-4 -14 -19 0
2 -8 -15 0
-3 -14 17 0
-15 17 18 0
1 12 18 0
6 -7 11 0
-6 12 -20 0
-1 14 -16 0
4 -9 -11 0
-14 -16 18 0
3 6 -9 0
5 -15 -16 0
18 -19 -20 0
9 -17 -19 0
-6 12 -14 0
3 -19 -20 0
-3 -16 -18 0
-8 -10 -17 0
5 -7 -12 0
1 -4 -8 0
2 -16 19 0
-3 11 -19 0
-9 -10 -16 0
-12 14 -20 0
-7 8 -17 0
-4 -15 -19 0
3 -7 -15 0
-9 -11 -19 0
-7 8 11 0
-14 -18 20 0
10 16 -17 0
1 17 -20 0
13 -18 -19 0
-2 5 -18 0
6 -14 -16 0
3 10 16 0
-4 -9 19 0
-2 -4 17 0
5 8 12 0
10 -17 19 0
-4 -12 19 0
5 9 14 0
7 10 -12 0
2 -11 12 0
2 11 -14 0
